data/evidence/ss_sat/proofs/scaled_cadical_drat/horn_chain_32.cadical.drat
2 0
d -1 2 0
3 0
d -2 3 0
4 0
d -3 4 0
5 0
d -4 5 0
6 0
d -5 6 0
7 0
d -6 7 0
8 0
d -7 8 0
9 0
d -8 9 0
10 0
d -9 10 0
11 0
d -10 11 0
12 0
d -11 12 0
13 0
d -12 13 0
14 0
d -13 14 0
15 0
d -14 15 0
16 0
d -15 16 0
17 0
d -16 17 0
18 0
d -17 18 0
19 0
d -18 19 0
20 0
d -19 20 0
21 0
d -20 21 0
22 0
d -21 22 0
23 0
d -22 23 0
24 0
d -23 24 0
25 0
d -24 25 0
26 0
d -25 26 0
27 0
d -26 27 0
28 0
d -27 28 0
29 0
d -28 29 0
30 0
d -29 30 0
31 0
d -30 31 0
32 0
d -31 32 0
0
d -32 0
