data/evidence/ss_sat/proofs/scaled_cadical_lrat/horn_chain_32.cadical.lrat
34 2 0 1 2 0
34 d 2 0
35 3 0 34 3 0
35 d 3 0
36 4 0 35 4 0
36 d 4 0
37 5 0 36 5 0
37 d 5 0
38 6 0 37 6 0
38 d 6 0
39 7 0 38 7 0
39 d 7 0
40 8 0 39 8 0
40 d 8 0
41 9 0 40 9 0
41 d 9 0
42 10 0 41 10 0
42 d 10 0
43 11 0 42 11 0
43 d 11 0
44 12 0 43 12 0
44 d 12 0
45 13 0 44 13 0
45 d 13 0
46 14 0 45 14 0
46 d 14 0
47 15 0 46 15 0
47 d 15 0
48 16 0 47 16 0
48 d 16 0
49 17 0 48 17 0
49 d 17 0
50 18 0 49 18 0
50 d 18 0
51 19 0 50 19 0
51 d 19 0
52 20 0 51 20 0
52 d 20 0
53 21 0 52 21 0
53 d 21 0
54 22 0 53 22 0
54 d 22 0
55 23 0 54 23 0
55 d 23 0
56 24 0 55 24 0
56 d 24 0
57 25 0 56 25 0
57 d 25 0
58 26 0 57 26 0
58 d 26 0
59 27 0 58 27 0
59 d 27 0
60 28 0 59 28 0
60 d 28 0
61 29 0 60 29 0
61 d 29 0
62 30 0 61 30 0
62 d 30 0
63 31 0 62 31 0
63 d 31 0
64 32 0 63 32 0
64 d 32 0
65 0 64 33 0
